peakDumbCharging = 18500; 
Machine = anon_enum(16); 
machineSpeed = [3700,3700,3700,3700,3700,3700,3700,3700,3700,3700,3700,3700,3700,3700,3700,3700]; 
machineLoad = [3700,3700,3700,3700,3700,3700,3700,3700,3700,3700,3700,3700,3700,3700,3700,3700]; 
Car = anon_enum(28); 
demandCar = [5960,3200,27600,7520,15720,7840,16520,10120,5560,9760,3360,14920,7960,1120,10600,3040,22600,3720,9720,4240,15160,1440,8760,80,8640,29840,12360,28440]; 
arrivalCar = [80,75,74,71,69,69,69,62,59,58,57,57,56,54,53,49,49,47,46,44,44,43,42,42,33,31,31,30]; 
departureCar = [83,77,83,74,75,74,76,66,61,62,60,67,59,56,57,51,75,50,49,46,50,45,46,43,44,42,37,59]; 
